(set-option :timeout 5000)
(declare-fun tvw_arr (Int) Int)
(declare-fun tvw_n () Int)
(declare-fun tvw_i () Int)
(declare-fun tvw_j () Int)
(declare-fun tvw_swapped () Int)
(assert (not  (<  0   (-  tvw_n   1 ) ) ) )
(check-sat)(get-model)
